66
11
0 11 13 15 17 18 23 25 26 28 29 31 33 34 35 39 41 43 44 46 47 49 50 52 53 54 56 57 58 59 63
1 11 13 15 18 20 22 25 28 29 30 31 33 34 35 44 45 46 47 49 52 54 55 56 57 58 59 65
2 13 15 16 18 20 25 29 30 31 34 35 38 44 45 46 47 49 52 57 58 59 61 65
3 13 15 16 17 18 19 20 25 30 33 39 41 43 45 47 49 50 52 54 55 65
4 11 12 13 16 17 18 20 21 22 25 26 27 28 29 33 35 36 39 41 44 46 49 51 52 56 57 58 59 62
5 15 16 20 23 24 25 28 30 31 35 38 41 45 47 49 50 58 65
6 11 13 14 19 23 28 29 30 31 32 34 39 40 41 44 46 47 48 53 55 58 64
7 15 18 24 25 32 33 35 38 42 43 44 46 47 55 56 59 62 65
8 11 16 18 19 28 29 35 39 42 45 49 53 54 56 58 60
9 22 37 38 48 50 54
10 14 24 31 41
